c CNF file corresponding to a (partial) station packing problem.
p cnf 1633 197
1 2 3 4 5 6 7 8 9 10 11 12 13 14 0
-1 -2 0
-1 -3 0
-1 -4 0
-1 -5 0
-1 -6 0
-1 -7 0
-1 -8 0
-1 -9 0
-1 -10 0
-1 -11 0
-1 -12 0
-1 -13 0
-1 -14 0
-2 -3 0
-2 -4 0
-2 -5 0
-2 -6 0
-2 -7 0
-2 -8 0
-2 -9 0
-2 -10 0
-2 -11 0
-2 -12 0
-2 -13 0
-2 -14 0
-3 -4 0
-3 -5 0
-3 -6 0
-3 -7 0
-3 -8 0
-3 -9 0
-3 -10 0
-3 -11 0
-3 -12 0
-3 -13 0
-3 -14 0
-4 -5 0
-4 -6 0
-4 -7 0
-4 -8 0
-4 -9 0
-4 -10 0
-4 -11 0
-4 -12 0
-4 -13 0
-4 -14 0
-5 -6 0
-5 -7 0
-5 -8 0
-5 -9 0
-5 -10 0
-5 -11 0
-5 -12 0
-5 -13 0
-5 -14 0
-6 -7 0
-6 -8 0
-6 -9 0
-6 -10 0
-6 -11 0
-6 -12 0
-6 -13 0
-6 -14 0
-7 -8 0
-7 -9 0
-7 -10 0
-7 -11 0
-7 -12 0
-7 -13 0
-7 -14 0
-8 -9 0
-8 -10 0
-8 -11 0
-8 -12 0
-8 -13 0
-8 -14 0
-9 -10 0
-9 -11 0
-9 -12 0
-9 -13 0
-9 -14 0
-10 -11 0
-10 -12 0
-10 -13 0
-10 -14 0
-11 -12 0
-11 -13 0
-11 -14 0
-12 -13 0
-12 -14 0
-13 -14 0
-1624 -5 0
-6 -1625 0
-1623 -4 0
-7 -1626 0
-10 -1629 0
-3 -1621 0
-1 -1620 0
-1628 -9 0
-1630 -11 0
-8 -1627 0
-14 -1633 0
-1632 -13 0
-1631 -12 0
1620 1621 1622 1623 1624 1625 1626 1627 1628 1629 1630 1631 1632 1633 0
-1620 -1621 0
-1620 -1622 0
-1620 -1623 0
-1620 -1624 0
-1620 -1625 0
-1620 -1626 0
-1620 -1627 0
-1620 -1628 0
-1620 -1629 0
-1620 -1630 0
-1620 -1631 0
-1620 -1632 0
-1620 -1633 0
-1621 -1622 0
-1621 -1623 0
-1621 -1624 0
-1621 -1625 0
-1621 -1626 0
-1621 -1627 0
-1621 -1628 0
-1621 -1629 0
-1621 -1630 0
-1621 -1631 0
-1621 -1632 0
-1621 -1633 0
-1622 -1623 0
-1622 -1624 0
-1622 -1625 0
-1622 -1626 0
-1622 -1627 0
-1622 -1628 0
-1622 -1629 0
-1622 -1630 0
-1622 -1631 0
-1622 -1632 0
-1622 -1633 0
-1623 -1624 0
-1623 -1625 0
-1623 -1626 0
-1623 -1627 0
-1623 -1628 0
-1623 -1629 0
-1623 -1630 0
-1623 -1631 0
-1623 -1632 0
-1623 -1633 0
-1624 -1625 0
-1624 -1626 0
-1624 -1627 0
-1624 -1628 0
-1624 -1629 0
-1624 -1630 0
-1624 -1631 0
-1624 -1632 0
-1624 -1633 0
-1625 -1626 0
-1625 -1627 0
-1625 -1628 0
-1625 -1629 0
-1625 -1630 0
-1625 -1631 0
-1625 -1632 0
-1625 -1633 0
-1626 -1627 0
-1626 -1628 0
-1626 -1629 0
-1626 -1630 0
-1626 -1631 0
-1626 -1632 0
-1626 -1633 0
-1627 -1628 0
-1627 -1629 0
-1627 -1630 0
-1627 -1631 0
-1627 -1632 0
-1627 -1633 0
-1628 -1629 0
-1628 -1630 0
-1628 -1631 0
-1628 -1632 0
-1628 -1633 0
-1629 -1630 0
-1629 -1631 0
-1629 -1632 0
-1629 -1633 0
-1630 -1631 0
-1630 -1632 0
-1630 -1633 0
-1631 -1632 0
-1631 -1633 0
-1632 -1633 0
